regression_itp/log-2023-02-20-10-22-36/lia_splits.smt2.out
unsat
unsat
((and (or (<= 0 z) (not (<= 0 (* -1 y)))) (or (<= 0 z) (<= 0 (* -1 y)))))
